(set-logic QF_BV)
(declare-fun clk_3 () (_ BitVec 1))
(declare-fun clk_4 () (_ BitVec 1))
(declare-fun clk_5 () (_ BitVec 1))
(declare-fun count1_3 () (_ BitVec 16))
(declare-fun count1_4 () (_ BitVec 16))
(declare-fun count1_5 () (_ BitVec 16))
(declare-fun flashclock1_4 () (_ BitVec 1))
(declare-fun flashclock1_5 () (_ BitVec 1))
(declare-fun rst_3 () (_ BitVec 1))
(declare-fun rst_4 () (_ BitVec 1))
(declare-fun rst_5 () (_ BitVec 1))
(declare-fun sflashclock1_3 () (_ BitVec 1))
(declare-fun sflashclock1_4 () (_ BitVec 1))
(declare-fun sflashclock1_5 () (_ BitVec 1))
(define-fun $e1 () (_ BitVec 16) (_ bv65534 16))
(define-fun $e2 () (_ BitVec 16) (_ bv0 16))
(define-fun $e3 () (_ BitVec 1) (ite (= count1_3 (bvnot $e2)) #b1 #b0))
(define-fun $e4 () (_ BitVec 1) (bvand (bvnot flashclock1_4) (bvnot sflashclock1_4)))
(define-fun $e5 () (_ BitVec 1) (bvand flashclock1_4 sflashclock1_4))
(define-fun $e6 () (_ BitVec 1) (bvand (bvnot $e4) (bvnot $e5)))
(define-fun $e7 () (_ BitVec 1) (bvand (bvnot clk_3) (bvnot clk_4)))
(define-fun $e8 () (_ BitVec 1) (bvand clk_3 clk_4))
(define-fun $e9 () (_ BitVec 1) (bvand (bvnot $e7) (bvnot $e8)))
(define-fun $e10 () (_ BitVec 16) (bvmul count1_4 (bvnot $e2)))
(define-fun $e11 () (_ BitVec 16) (bvadd count1_3 $e10))
(define-fun $e12 () (_ BitVec 1) (ite (= $e2 $e11) #b1 #b0))
(define-fun $e13 () (_ BitVec 1) (bvand (bvnot flashclock1_5) (bvnot sflashclock1_5)))
(define-fun $e14 () (_ BitVec 1) (bvand flashclock1_5 sflashclock1_5))
(define-fun $e15 () (_ BitVec 1) (bvand (bvnot $e13) (bvnot $e14)))
(define-fun $e16 () (_ BitVec 1) (bvand (bvnot clk_4) (bvnot clk_5)))
(define-fun $e17 () (_ BitVec 1) (bvand clk_4 clk_5))
(define-fun $e18 () (_ BitVec 1) (bvand (bvnot $e16) (bvnot $e17)))
(define-fun $e19 () (_ BitVec 16) (bvmul count1_5 (bvnot $e2)))
(define-fun $e20 () (_ BitVec 16) (bvadd count1_4 $e19))
(define-fun $e21 () (_ BitVec 1) (ite (= $e2 $e20) #b1 #b0))
(define-fun $e22 () (_ BitVec 1) (bvand sflashclock1_5 $e21))
(define-fun $e23 () (_ BitVec 1) (bvand (bvnot rst_4) (bvnot rst_5)))
(define-fun $e24 () (_ BitVec 1) (bvand rst_4 rst_5))
(define-fun $e25 () (_ BitVec 1) (bvand (bvnot $e23) (bvnot $e24)))
(define-fun $e26 () (_ BitVec 1) (ite (= count1_5 $e2) #b1 #b0))
(define-fun $e27 () (_ BitVec 1) (bvand (bvnot sflashclock1_5) $e26))
(define-fun $e28 () (_ BitVec 1) (bvand (bvnot sflashclock1_5) $e21))
(define-fun $e29 () (_ BitVec 1) (bvand (bvnot $e21) (bvnot $e27)))
(define-fun $e30 () (_ BitVec 1) (bvand (bvnot $e28) (bvnot $e29)))
(define-fun $e31 () (_ BitVec 1) (bvand $e25 (bvnot $e30)))
(define-fun $e32 () (_ BitVec 1) (bvand (bvnot $e22) (bvnot $e25)))
(define-fun $e33 () (_ BitVec 1) (bvand (bvnot $e31) (bvnot $e32)))
(define-fun $e34 () (_ BitVec 1) (bvand $e18 (bvnot $e22)))
(define-fun $e35 () (_ BitVec 1) (bvand (bvnot $e18) (bvnot $e33)))
(define-fun $e36 () (_ BitVec 1) (bvand (bvnot $e34) (bvnot $e35)))
(define-fun $e37 () (_ BitVec 1) (bvand (bvnot $e15) $e36))
(define-fun $e38 () (_ BitVec 1) (bvand sflashclock1_4 $e37))
(define-fun $e39 () (_ BitVec 1) (ite (= count1_4 $e2) #b1 #b0))
(define-fun $e40 () (_ BitVec 1) (ite (= (bvnot $e2) $e20) #b1 #b0))
(define-fun $e41 () (_ BitVec 1) (bvand sflashclock1_5 $e40))
(define-fun $e42 () (_ BitVec 1) (bvand (bvnot $e21) (bvnot $e41)))
(define-fun $e43 () (_ BitVec 1) (bvand (bvnot $e28) (bvnot $e42)))
(define-fun $e44 () (_ BitVec 1) (bvand $e25 (bvnot $e43)))
(define-fun $e45 () (_ BitVec 1) (bvand (bvnot $e32) (bvnot $e44)))
(define-fun $e46 () (_ BitVec 1) (bvand (bvnot $e18) (bvnot $e45)))
(define-fun $e47 () (_ BitVec 1) (bvand (bvnot $e34) (bvnot $e46)))
(define-fun $e48 () (_ BitVec 1) (bvand (bvnot $e15) $e47))
(define-fun $e49 () (_ BitVec 1) (bvand sflashclock1_4 $e48))
(define-fun $e50 () (_ BitVec 1) (ite (= $e2 $e19) #b1 #b0))
(define-fun $e51 () (_ BitVec 1) (bvand sflashclock1_5 $e50))
(define-fun $e52 () (_ BitVec 1) (bvand $e18 (bvnot $e51)))
(define-fun $e53 () (_ BitVec 1) (bvand (bvnot $e25) (bvnot $e51)))
(define-fun $e54 () (_ BitVec 1) (bvand (bvnot sflashclock1_5) $e50))
(define-fun $e55 () (_ BitVec 1) (bvand (bvnot $e41) (bvnot $e50)))
(define-fun $e56 () (_ BitVec 1) (bvand (bvnot $e54) (bvnot $e55)))
(define-fun $e57 () (_ BitVec 1) (bvand $e25 (bvnot $e56)))
(define-fun $e58 () (_ BitVec 1) (bvand (bvnot $e53) (bvnot $e57)))
(define-fun $e59 () (_ BitVec 1) (bvand (bvnot $e18) (bvnot $e58)))
(define-fun $e60 () (_ BitVec 1) (bvand (bvnot $e52) (bvnot $e59)))
(define-fun $e61 () (_ BitVec 1) (bvand (bvnot $e15) $e60))
(define-fun $e62 () (_ BitVec 1) (bvand sflashclock1_4 $e61))
(define-fun $e63 () (_ BitVec 1) (bvand $e39 $e62))
(define-fun $e64 () (_ BitVec 1) (bvand $e12 (bvnot $e38)))
(define-fun $e65 () (_ BitVec 1) (bvand (bvnot $e12) (bvnot $e63)))
(define-fun $e66 () (_ BitVec 1) (bvand (bvnot $e64) (bvnot $e65)))
(define-fun $e67 () (_ BitVec 1) (bvand (bvnot $e22) $e25))
(define-fun $e68 () (_ BitVec 1) (bvand (bvnot $e25) (bvnot $e30)))
(define-fun $e69 () (_ BitVec 1) (bvand (bvnot $e67) (bvnot $e68)))
(define-fun $e70 () (_ BitVec 1) (bvand (bvnot $e18) (bvnot $e69)))
(define-fun $e71 () (_ BitVec 1) (bvand (bvnot $e34) (bvnot $e70)))
(define-fun $e72 () (_ BitVec 1) (bvand (bvnot $e15) $e71))
(define-fun $e73 () (_ BitVec 1) (bvand sflashclock1_4 $e72))
(define-fun $e74 () (_ BitVec 1) (bvand rst_5 (bvnot $e22)))
(define-fun $e75 () (_ BitVec 1) (bvand (bvnot rst_5) (bvnot $e21)))
(define-fun $e76 () (_ BitVec 1) (bvand (bvnot $e74) (bvnot $e75)))
(define-fun $e77 () (_ BitVec 1) (bvand (bvnot $e21) (bvnot $e40)))
(define-fun $e78 () (_ BitVec 1) (bvand (bvnot $e25) $e77))
(define-fun $e79 () (_ BitVec 1) (bvand (bvnot $e67) (bvnot $e78)))
(define-fun $e80 () (_ BitVec 1) (bvand $e18 (bvnot $e76)))
(define-fun $e81 () (_ BitVec 1) (bvand (bvnot $e18) (bvnot $e79)))
(define-fun $e82 () (_ BitVec 1) (bvand (bvnot $e80) (bvnot $e81)))
(define-fun $e83 () (_ BitVec 1) (bvand (bvnot $e15) $e82))
(define-fun $e84 () (_ BitVec 1) (bvand (bvnot sflashclock1_4) $e83))
(define-fun $e85 () (_ BitVec 1) (bvand rst_5 (bvnot $e51)))
(define-fun $e86 () (_ BitVec 1) (bvand (bvnot rst_5) (bvnot $e50)))
(define-fun $e87 () (_ BitVec 1) (bvand (bvnot $e85) (bvnot $e86)))
(define-fun $e88 () (_ BitVec 1) (bvand $e18 (bvnot $e87)))
(define-fun $e89 () (_ BitVec 1) (bvand $e25 (bvnot $e51)))
(define-fun $e90 () (_ BitVec 1) (ite (= (bvnot $e2) $e19) #b1 #b0))
(define-fun $e91 () (_ BitVec 1) (bvand (bvnot $e50) (bvnot $e90)))
(define-fun $e92 () (_ BitVec 1) (bvand (bvnot $e25) $e91))
(define-fun $e93 () (_ BitVec 1) (bvand (bvnot $e89) (bvnot $e92)))
(define-fun $e94 () (_ BitVec 1) (bvand (bvnot $e18) (bvnot $e93)))
(define-fun $e95 () (_ BitVec 1) (bvand (bvnot $e88) (bvnot $e94)))
(define-fun $e96 () (_ BitVec 1) (bvand (bvnot $e15) $e95))
(define-fun $e97 () (_ BitVec 1) (bvand (bvnot sflashclock1_4) $e96))
(define-fun $e98 () (_ BitVec 1) (bvand $e39 $e97))
(define-fun $e99 () (_ BitVec 1) (bvand $e12 (bvnot $e73)))
(define-fun $e100 () (_ BitVec 1) (bvand (bvnot $e12) (bvnot $e98)))
(define-fun $e101 () (_ BitVec 1) (bvand (bvnot $e99) (bvnot $e100)))
(define-fun $e102 () (_ BitVec 1) (bvand rst_4 (bvnot $e66)))
(define-fun $e103 () (_ BitVec 1) (bvand (bvnot rst_4) (bvnot $e101)))
(define-fun $e104 () (_ BitVec 1) (bvand (bvnot $e102) (bvnot $e103)))
(define-fun $e105 () (_ BitVec 1) (bvand (bvnot rst_3) (bvnot rst_4)))
(define-fun $e106 () (_ BitVec 1) (bvand rst_3 rst_4))
(define-fun $e107 () (_ BitVec 1) (bvand (bvnot $e105) (bvnot $e106)))
(define-fun $e108 () (_ BitVec 1) (bvand sflashclock1_5 $e26))
(define-fun $e109 () (_ BitVec 1) (bvand (bvnot $e21) (bvnot $e108)))
(define-fun $e110 () (_ BitVec 1) (bvand (bvnot $e28) (bvnot $e109)))
(define-fun $e111 () (_ BitVec 1) (bvand rst_5 (bvnot $e110)))
(define-fun $e112 () (_ BitVec 1) (bvand (bvnot rst_5) (bvnot $e30)))
(define-fun $e113 () (_ BitVec 1) (bvand (bvnot $e111) (bvnot $e112)))
(define-fun $e114 () (_ BitVec 1) (bvand $e25 (bvnot $e110)))
(define-fun $e115 () (_ BitVec 1) (bvand (bvnot $e68) (bvnot $e114)))
(define-fun $e116 () (_ BitVec 1) (bvand $e18 (bvnot $e113)))
(define-fun $e117 () (_ BitVec 1) (bvand (bvnot $e18) (bvnot $e115)))
(define-fun $e118 () (_ BitVec 1) (bvand (bvnot $e116) (bvnot $e117)))
(define-fun $e119 () (_ BitVec 1) (bvand (bvnot $e15) $e118))
(define-fun $e120 () (_ BitVec 1) (bvand sflashclock1_4 $e119))
(define-fun $e121 () (_ BitVec 1) (bvand (bvnot $e28) (bvnot $e77)))
(define-fun $e122 () (_ BitVec 1) (bvand rst_5 (bvnot $e43)))
(define-fun $e123 () (_ BitVec 1) (bvand (bvnot rst_5) (bvnot $e121)))
(define-fun $e124 () (_ BitVec 1) (bvand (bvnot $e122) (bvnot $e123)))
(define-fun $e125 () (_ BitVec 1) (bvand (bvnot sflashclock1_5) $e40))
(define-fun $e126 () (_ BitVec 1) (bvand (bvnot $e21) (bvnot $e125)))
(define-fun $e127 () (_ BitVec 1) (bvand (bvnot $e25) $e126))
(define-fun $e128 () (_ BitVec 1) (bvand (bvnot $e44) (bvnot $e127)))
(define-fun $e129 () (_ BitVec 1) (bvand $e18 (bvnot $e124)))
(define-fun $e130 () (_ BitVec 1) (bvand (bvnot $e18) (bvnot $e128)))
(define-fun $e131 () (_ BitVec 1) (bvand (bvnot $e129) (bvnot $e130)))
(define-fun $e132 () (_ BitVec 1) (bvand (bvnot $e15) $e131))
(define-fun $e133 () (_ BitVec 1) (bvand rst_5 (bvnot $e56)))
(define-fun $e134 () (_ BitVec 1) (bvand (bvnot $e54) (bvnot $e91)))
(define-fun $e135 () (_ BitVec 1) (bvand (bvnot rst_5) (bvnot $e134)))
(define-fun $e136 () (_ BitVec 1) (bvand (bvnot $e133) (bvnot $e135)))
(define-fun $e137 () (_ BitVec 1) (bvand $e18 (bvnot $e136)))
(define-fun $e138 () (_ BitVec 1) (bvand (bvnot sflashclock1_5) $e90))
(define-fun $e139 () (_ BitVec 1) (bvand (bvnot $e50) (bvnot $e138)))
(define-fun $e140 () (_ BitVec 1) (bvand (bvnot $e25) $e139))
(define-fun $e141 () (_ BitVec 1) (bvand (bvnot $e57) (bvnot $e140)))
(define-fun $e142 () (_ BitVec 1) (bvand (bvnot $e18) (bvnot $e141)))
(define-fun $e143 () (_ BitVec 1) (bvand (bvnot $e137) (bvnot $e142)))
(define-fun $e144 () (_ BitVec 1) (bvand (bvnot $e15) $e143))
(define-fun $e145 () (_ BitVec 1) (bvand (bvnot sflashclock1_4) $e144))
(define-fun $e146 () (_ BitVec 1) (bvand $e39 $e145))
(define-fun $e147 () (_ BitVec 1) (bvand $e12 (bvnot $e120)))
(define-fun $e148 () (_ BitVec 1) (bvand (bvnot $e12) (bvnot $e146)))
(define-fun $e149 () (_ BitVec 1) (bvand (bvnot $e147) (bvnot $e148)))
(define-fun $e150 () (_ BitVec 1) (bvand (bvnot $e25) (bvnot $e110)))
(define-fun $e151 () (_ BitVec 1) (bvand (bvnot $e31) (bvnot $e150)))
(define-fun $e152 () (_ BitVec 1) (bvand (bvnot $e18) (bvnot $e151)))
(define-fun $e153 () (_ BitVec 1) (bvand (bvnot $e116) (bvnot $e152)))
(define-fun $e154 () (_ BitVec 1) (bvand (bvnot $e15) $e153))
(define-fun $e155 () (_ BitVec 1) (bvand sflashclock1_4 $e154))
(define-fun $e156 () (_ BitVec 1) (bvand (bvnot $e15) $e43))
(define-fun $e157 () (_ BitVec 1) (bvand sflashclock1_4 $e156))
(define-fun $e158 () (_ BitVec 1) (bvand sflashclock1_5 $e90))
(define-fun $e159 () (_ BitVec 1) (bvand (bvnot $e50) (bvnot $e158)))
(define-fun $e160 () (_ BitVec 1) (bvand (bvnot $e54) (bvnot $e159)))
(define-fun $e161 () (_ BitVec 1) (bvand (bvnot $e15) $e160))
(define-fun $e162 () (_ BitVec 1) (bvand sflashclock1_4 $e161))
(define-fun $e163 () (_ BitVec 1) (bvand $e39 $e162))
(define-fun $e164 () (_ BitVec 1) (bvand $e12 (bvnot $e155)))
(define-fun $e165 () (_ BitVec 1) (bvand (bvnot $e12) (bvnot $e163)))
(define-fun $e166 () (_ BitVec 1) (bvand (bvnot $e164) (bvnot $e165)))
(define-fun $e167 () (_ BitVec 1) (bvand $e107 (bvnot $e166)))
(define-fun $e168 () (_ BitVec 1) (bvand (bvnot $e107) (bvnot $e149)))
(define-fun $e169 () (_ BitVec 1) (bvand (bvnot $e167) (bvnot $e168)))
(define-fun $e170 () (_ BitVec 1) (bvand $e9 (bvnot $e104)))
(define-fun $e171 () (_ BitVec 1) (bvand (bvnot $e9) (bvnot $e169)))
(define-fun $e172 () (_ BitVec 1) (bvand (bvnot $e170) (bvnot $e171)))
(define-fun $e173 () (_ BitVec 1) (bvand (bvnot $e6) $e172))
(define-fun $e174 () (_ BitVec 1) (bvand (bvnot $e25) (bvnot $e43)))
(define-fun $e175 () (_ BitVec 1) (bvand (bvnot $e67) (bvnot $e174)))
(define-fun $e176 () (_ BitVec 1) (bvand (bvnot $e18) (bvnot $e175)))
(define-fun $e177 () (_ BitVec 1) (bvand (bvnot $e34) (bvnot $e176)))
(define-fun $e178 () (_ BitVec 1) (bvand (bvnot $e15) $e177))
(define-fun $e179 () (_ BitVec 1) (bvand sflashclock1_4 (bvnot $e178)))
(define-fun $e180 () (_ BitVec 1) (bvand (bvnot sflashclock1_4) (bvnot $e83)))
(define-fun $e181 () (_ BitVec 1) (bvand (bvnot $e179) (bvnot $e180)))
(define-fun $e182 () (_ BitVec 1) (bvand (bvnot $e89) (bvnot $e174)))
(define-fun $e183 () (_ BitVec 1) (bvand (bvnot $e18) (bvnot $e182)))
(define-fun $e184 () (_ BitVec 1) (bvand (bvnot $e52) (bvnot $e183)))
(define-fun $e185 () (_ BitVec 1) (bvand (bvnot $e15) $e184))
(define-fun $e186 () (_ BitVec 1) (bvand sflashclock1_4 (bvnot $e185)))
(define-fun $e187 () (_ BitVec 1) (bvand (bvnot sflashclock1_4) (bvnot $e96)))
(define-fun $e188 () (_ BitVec 1) (bvand (bvnot $e186) (bvnot $e187)))
(define-fun $e189 () (_ BitVec 1) (bvand $e39 $e188))
(define-fun $e190 () (_ BitVec 1) (bvand (bvnot $e12) (bvnot $e189)))
(define-fun $e191 () (_ BitVec 1) (bvand (bvnot $e99) (bvnot $e190)))
(define-fun $e192 () (_ BitVec 1) (bvand (bvnot rst_4) (bvnot $e191)))
(define-fun $e193 () (_ BitVec 1) (bvand (bvnot $e102) (bvnot $e192)))
(define-fun $e194 () (_ BitVec 1) (bvand (bvnot $e21) (bvnot $e26)))
(define-fun $e195 () (_ BitVec 1) (bvand (bvnot $e28) (bvnot $e194)))
(define-fun $e196 () (_ BitVec 1) (bvand (bvnot rst_5) (bvnot $e195)))
(define-fun $e197 () (_ BitVec 1) (bvand (bvnot $e111) (bvnot $e196)))
(define-fun $e198 () (_ BitVec 1) (bvand (bvnot $e25) $e109))
(define-fun $e199 () (_ BitVec 1) (bvand (bvnot $e114) (bvnot $e198)))
(define-fun $e200 () (_ BitVec 1) (bvand $e18 (bvnot $e197)))
(define-fun $e201 () (_ BitVec 1) (bvand (bvnot $e18) (bvnot $e199)))
(define-fun $e202 () (_ BitVec 1) (bvand (bvnot $e200) (bvnot $e201)))
(define-fun $e203 () (_ BitVec 1) (bvand (bvnot $e15) $e202))
(define-fun $e204 () (_ BitVec 1) (bvand sflashclock1_4 (bvnot $e119)))
(define-fun $e205 () (_ BitVec 1) (bvand (bvnot sflashclock1_4) (bvnot $e203)))
(define-fun $e206 () (_ BitVec 1) (bvand (bvnot $e204) (bvnot $e205)))
(define-fun $e207 () (_ BitVec 1) (bvand $e12 (bvnot $e206)))
(define-fun $e208 () (_ BitVec 1) (bvand (bvnot $e165) (bvnot $e207)))
(define-fun $e209 () (_ BitVec 1) (bvand (bvnot $e107) (bvnot $e208)))
(define-fun $e210 () (_ BitVec 1) (bvand (bvnot $e167) (bvnot $e209)))
(define-fun $e211 () (_ BitVec 1) (bvand $e9 (bvnot $e193)))
(define-fun $e212 () (_ BitVec 1) (bvand (bvnot $e9) (bvnot $e210)))
(define-fun $e213 () (_ BitVec 1) (bvand (bvnot $e211) (bvnot $e212)))
(define-fun $e214 () (_ BitVec 1) (bvand (bvnot $e6) $e213))
(define-fun $e215 () (_ BitVec 1) (bvand sflashclock1_3 (bvnot $e173)))
(define-fun $e216 () (_ BitVec 1) (bvand (bvnot sflashclock1_3) (bvnot $e214)))
(define-fun $e217 () (_ BitVec 1) (bvand (bvnot $e215) (bvnot $e216)))
(define-fun $e218 () (_ BitVec 1) (bvand clk_4 (bvnot $e178)))
(define-fun $e219 () (_ BitVec 1) (bvand (bvnot clk_4) (bvnot $e156)))
(define-fun $e220 () (_ BitVec 1) (bvand (bvnot $e218) (bvnot $e219)))
(define-fun $e221 () (_ BitVec 1) (bvand sflashclock1_4 $e220))
(define-fun $e222 () (_ BitVec 1) (bvand clk_4 (bvnot $e48)))
(define-fun $e223 () (_ BitVec 1) (bvand (bvnot $e219) (bvnot $e222)))
(define-fun $e224 () (_ BitVec 1) (bvand sflashclock1_4 $e223))
(define-fun $e225 () (_ BitVec 1) (bvand rst_4 (bvnot $e224)))
(define-fun $e226 () (_ BitVec 1) (bvand (bvnot rst_4) (bvnot $e221)))
(define-fun $e227 () (_ BitVec 1) (bvand (bvnot $e225) (bvnot $e226)))
(define-fun $e228 () (_ BitVec 1) (ite (= (bvnot $e2) $e11) #b1 #b0))
(define-fun $e229 () (_ BitVec 1) (ite (= count1_4 (bvnot $e2)) #b1 #b0))
(define-fun $e230 () (_ BitVec 1) (ite (= (bvnot $e1) $e19) #b1 #b0))
(define-fun $e231 () (_ BitVec 1) (bvand (bvnot sflashclock1_5) $e230))
(define-fun $e232 () (_ BitVec 1) (bvand (bvnot $e108) (bvnot $e230)))
(define-fun $e233 () (_ BitVec 1) (bvand (bvnot $e231) (bvnot $e232)))
(define-fun $e234 () (_ BitVec 1) (bvand rst_5 (bvnot $e233)))
(define-fun $e235 () (_ BitVec 1) (bvand (bvnot $e27) (bvnot $e230)))
(define-fun $e236 () (_ BitVec 1) (bvand (bvnot $e231) (bvnot $e235)))
(define-fun $e237 () (_ BitVec 1) (bvand (bvnot rst_5) (bvnot $e236)))
(define-fun $e238 () (_ BitVec 1) (bvand (bvnot $e234) (bvnot $e237)))
(define-fun $e239 () (_ BitVec 1) (bvand $e18 (bvnot $e238)))
(define-fun $e240 () (_ BitVec 1) (bvand (bvnot $e25) (bvnot $e236)))
(define-fun $e241 () (_ BitVec 1) (bvand $e25 (bvnot $e233)))
(define-fun $e242 () (_ BitVec 1) (bvand (bvnot $e240) (bvnot $e241)))
(define-fun $e243 () (_ BitVec 1) (bvand (bvnot $e18) (bvnot $e242)))
(define-fun $e244 () (_ BitVec 1) (bvand (bvnot $e239) (bvnot $e243)))
(define-fun $e245 () (_ BitVec 1) (bvand (bvnot $e15) $e244))
(define-fun $e246 () (_ BitVec 1) (bvand $e229 (bvnot $e245)))
(define-fun $e247 () (_ BitVec 1) (bvand (bvnot $e156) (bvnot $e229)))
(define-fun $e248 () (_ BitVec 1) (bvand (bvnot $e246) (bvnot $e247)))
(define-fun $e249 () (_ BitVec 1) (bvand sflashclock1_5 $e230))
(define-fun $e250 () (_ BitVec 1) (bvand $e18 (bvnot $e249)))
(define-fun $e251 () (_ BitVec 1) (bvand $e25 (bvnot $e249)))
(define-fun $e252 () (_ BitVec 1) (bvand (bvnot $e240) (bvnot $e251)))
(define-fun $e253 () (_ BitVec 1) (bvand (bvnot $e18) (bvnot $e252)))
(define-fun $e254 () (_ BitVec 1) (bvand (bvnot $e250) (bvnot $e253)))
(define-fun $e255 () (_ BitVec 1) (bvand (bvnot $e15) $e254))
(define-fun $e256 () (_ BitVec 1) (bvand $e229 (bvnot $e255)))
(define-fun $e257 () (_ BitVec 1) (bvand (bvnot $e178) (bvnot $e229)))
(define-fun $e258 () (_ BitVec 1) (bvand (bvnot $e256) (bvnot $e257)))
(define-fun $e259 () (_ BitVec 1) (bvand clk_4 (bvnot $e258)))
(define-fun $e260 () (_ BitVec 1) (bvand (bvnot clk_4) (bvnot $e248)))
(define-fun $e261 () (_ BitVec 1) (bvand (bvnot $e259) (bvnot $e260)))
(define-fun $e262 () (_ BitVec 1) (bvand sflashclock1_4 $e261))
(define-fun $e263 () (_ BitVec 1) (bvand $e25 (bvnot $e236)))
(define-fun $e264 () (_ BitVec 1) (bvand (bvnot $e25) (bvnot $e233)))
(define-fun $e265 () (_ BitVec 1) (bvand (bvnot $e263) (bvnot $e264)))
(define-fun $e266 () (_ BitVec 1) (bvand (bvnot $e18) (bvnot $e265)))
(define-fun $e267 () (_ BitVec 1) (bvand (bvnot $e239) (bvnot $e266)))
(define-fun $e268 () (_ BitVec 1) (bvand (bvnot $e15) $e267))
(define-fun $e269 () (_ BitVec 1) (bvand $e229 (bvnot $e268)))
(define-fun $e270 () (_ BitVec 1) (bvand (bvnot $e247) (bvnot $e269)))
(define-fun $e271 () (_ BitVec 1) (bvand (bvnot $e25) (bvnot $e249)))
(define-fun $e272 () (_ BitVec 1) (bvand (bvnot $e263) (bvnot $e271)))
(define-fun $e273 () (_ BitVec 1) (bvand (bvnot $e18) (bvnot $e272)))
(define-fun $e274 () (_ BitVec 1) (bvand (bvnot $e250) (bvnot $e273)))
(define-fun $e275 () (_ BitVec 1) (bvand (bvnot $e15) $e274))
(define-fun $e276 () (_ BitVec 1) (bvand $e229 (bvnot $e275)))
(define-fun $e277 () (_ BitVec 1) (bvand (bvnot $e48) (bvnot $e229)))
(define-fun $e278 () (_ BitVec 1) (bvand (bvnot $e276) (bvnot $e277)))
(define-fun $e279 () (_ BitVec 1) (bvand clk_4 (bvnot $e278)))
(define-fun $e280 () (_ BitVec 1) (bvand (bvnot clk_4) (bvnot $e270)))
(define-fun $e281 () (_ BitVec 1) (bvand (bvnot $e279) (bvnot $e280)))
(define-fun $e282 () (_ BitVec 1) (bvand sflashclock1_4 $e281))
(define-fun $e283 () (_ BitVec 1) (bvand rst_4 (bvnot $e282)))
(define-fun $e284 () (_ BitVec 1) (bvand (bvnot rst_4) (bvnot $e262)))
(define-fun $e285 () (_ BitVec 1) (bvand (bvnot $e283) (bvnot $e284)))
(define-fun $e286 () (_ BitVec 1) (bvand $e228 $e285))
(define-fun $e287 () (_ BitVec 1) (bvand $e12 (bvnot $e227)))
(define-fun $e288 () (_ BitVec 1) (bvand (bvnot $e12) (bvnot $e286)))
(define-fun $e289 () (_ BitVec 1) (bvand (bvnot $e287) (bvnot $e288)))
(define-fun $e290 () (_ BitVec 1) (bvand (bvnot $e6) $e289))
(define-fun $e291 () (_ BitVec 1) (bvand sflashclock1_4 $e278))
(define-fun $e292 () (_ BitVec 1) (bvand $e228 $e291))
(define-fun $e293 () (_ BitVec 1) (bvand $e12 (bvnot $e49)))
(define-fun $e294 () (_ BitVec 1) (bvand (bvnot $e12) (bvnot $e292)))
(define-fun $e295 () (_ BitVec 1) (bvand (bvnot $e293) (bvnot $e294)))
(define-fun $e296 () (_ BitVec 1) (bvand sflashclock1_4 $e178))
(define-fun $e297 () (_ BitVec 1) (bvand (bvnot $e25) $e194))
(define-fun $e298 () (_ BitVec 1) (bvand (bvnot $e67) (bvnot $e297)))
(define-fun $e299 () (_ BitVec 1) (bvand (bvnot $e18) (bvnot $e298)))
(define-fun $e300 () (_ BitVec 1) (bvand (bvnot $e80) (bvnot $e299)))
(define-fun $e301 () (_ BitVec 1) (bvand (bvnot $e15) $e300))
(define-fun $e302 () (_ BitVec 1) (bvand rst_5 (bvnot $e249)))
(define-fun $e303 () (_ BitVec 1) (bvand (bvnot rst_5) (bvnot $e230)))
(define-fun $e304 () (_ BitVec 1) (bvand (bvnot $e302) (bvnot $e303)))
(define-fun $e305 () (_ BitVec 1) (bvand $e18 (bvnot $e304)))
(define-fun $e306 () (_ BitVec 1) (bvand (bvnot $e26) (bvnot $e230)))
(define-fun $e307 () (_ BitVec 1) (bvand (bvnot $e25) $e306))
(define-fun $e308 () (_ BitVec 1) (bvand (bvnot $e251) (bvnot $e307)))
(define-fun $e309 () (_ BitVec 1) (bvand (bvnot $e18) (bvnot $e308)))
(define-fun $e310 () (_ BitVec 1) (bvand (bvnot $e305) (bvnot $e309)))
(define-fun $e311 () (_ BitVec 1) (bvand (bvnot $e15) $e310))
(define-fun $e312 () (_ BitVec 1) (bvand $e229 (bvnot $e311)))
(define-fun $e313 () (_ BitVec 1) (bvand (bvnot $e83) (bvnot $e229)))
(define-fun $e314 () (_ BitVec 1) (bvand (bvnot $e312) (bvnot $e313)))
(define-fun $e315 () (_ BitVec 1) (bvand sflashclock1_4 (bvnot $e258)))
(define-fun $e316 () (_ BitVec 1) (bvand (bvnot sflashclock1_4) (bvnot $e314)))
(define-fun $e317 () (_ BitVec 1) (bvand (bvnot $e315) (bvnot $e316)))
(define-fun $e318 () (_ BitVec 1) (bvand $e228 $e317))
(define-fun $e319 () (_ BitVec 1) (bvand $e12 (bvnot $e296)))
(define-fun $e320 () (_ BitVec 1) (bvand (bvnot $e12) (bvnot $e318)))
(define-fun $e321 () (_ BitVec 1) (bvand (bvnot $e319) (bvnot $e320)))
(define-fun $e322 () (_ BitVec 1) (bvand rst_4 (bvnot $e295)))
(define-fun $e323 () (_ BitVec 1) (bvand (bvnot rst_4) (bvnot $e321)))
(define-fun $e324 () (_ BitVec 1) (bvand (bvnot $e322) (bvnot $e323)))
(define-fun $e325 () (_ BitVec 1) (bvand sflashclock1_4 (bvnot $e156)))
(define-fun $e326 () (_ BitVec 1) (bvand (bvnot sflashclock1_4) (bvnot $e132)))
(define-fun $e327 () (_ BitVec 1) (bvand (bvnot $e325) (bvnot $e326)))
(define-fun $e328 () (_ BitVec 1) (bvand (bvnot $e231) (bvnot $e306)))
(define-fun $e329 () (_ BitVec 1) (bvand (bvnot rst_5) (bvnot $e328)))
(define-fun $e330 () (_ BitVec 1) (bvand (bvnot $e234) (bvnot $e329)))
(define-fun $e331 () (_ BitVec 1) (bvand $e18 (bvnot $e330)))
(define-fun $e332 () (_ BitVec 1) (bvand (bvnot $e25) $e232))
(define-fun $e333 () (_ BitVec 1) (bvand (bvnot $e241) (bvnot $e332)))
(define-fun $e334 () (_ BitVec 1) (bvand (bvnot $e18) (bvnot $e333)))
(define-fun $e335 () (_ BitVec 1) (bvand (bvnot $e331) (bvnot $e334)))
(define-fun $e336 () (_ BitVec 1) (bvand (bvnot $e15) $e335))
(define-fun $e337 () (_ BitVec 1) (bvand $e229 (bvnot $e336)))
(define-fun $e338 () (_ BitVec 1) (bvand (bvnot $e132) (bvnot $e229)))
(define-fun $e339 () (_ BitVec 1) (bvand (bvnot $e337) (bvnot $e338)))
(define-fun $e340 () (_ BitVec 1) (bvand (bvnot sflashclock1_4) $e339))
(define-fun $e341 () (_ BitVec 1) (bvand $e228 $e340))
(define-fun $e342 () (_ BitVec 1) (bvand $e12 (bvnot $e327)))
(define-fun $e343 () (_ BitVec 1) (bvand (bvnot $e12) (bvnot $e341)))
(define-fun $e344 () (_ BitVec 1) (bvand (bvnot $e342) (bvnot $e343)))
(define-fun $e345 () (_ BitVec 1) (bvand sflashclock1_4 $e270))
(define-fun $e346 () (_ BitVec 1) (bvand $e228 $e345))
(define-fun $e347 () (_ BitVec 1) (bvand $e12 (bvnot $e157)))
(define-fun $e348 () (_ BitVec 1) (bvand (bvnot $e12) (bvnot $e346)))
(define-fun $e349 () (_ BitVec 1) (bvand (bvnot $e347) (bvnot $e348)))
(define-fun $e350 () (_ BitVec 1) (bvand $e107 (bvnot $e349)))
(define-fun $e351 () (_ BitVec 1) (bvand (bvnot $e107) (bvnot $e344)))
(define-fun $e352 () (_ BitVec 1) (bvand (bvnot $e350) (bvnot $e351)))
(define-fun $e353 () (_ BitVec 1) (bvand $e9 (bvnot $e324)))
(define-fun $e354 () (_ BitVec 1) (bvand (bvnot $e9) (bvnot $e352)))
(define-fun $e355 () (_ BitVec 1) (bvand (bvnot $e353) (bvnot $e354)))
(define-fun $e356 () (_ BitVec 1) (bvand (bvnot $e6) $e355))
(define-fun $e357 () (_ BitVec 1) (bvand sflashclock1_3 (bvnot $e290)))
(define-fun $e358 () (_ BitVec 1) (bvand (bvnot sflashclock1_3) (bvnot $e356)))
(define-fun $e359 () (_ BitVec 1) (bvand (bvnot $e357) (bvnot $e358)))
(define-fun $e360 () (_ BitVec 1) (bvand $e3 (bvnot $e217)))
(define-fun $e361 () (_ BitVec 1) (bvand (bvnot $e3) (bvnot $e359)))
(define-fun $e362 () (_ BitVec 1) (bvand (bvnot $e360) (bvnot $e361)))
(define-fun $e363 () (_ BitVec 1) (bvand rst_4 (bvnot $e155)))
(define-fun $e364 () (_ BitVec 1) (bvand (bvnot rst_4) (bvnot $e120)))
(define-fun $e365 () (_ BitVec 1) (bvand (bvnot $e363) (bvnot $e364)))
(define-fun $e366 () (_ BitVec 1) (bvand (bvnot $e101) (bvnot $e107)))
(define-fun $e367 () (_ BitVec 1) (bvand sflashclock1_4 (bvnot $e72)))
(define-fun $e368 () (_ BitVec 1) (bvand (bvnot sflashclock1_4) (bvnot $e301)))
(define-fun $e369 () (_ BitVec 1) (bvand (bvnot $e367) (bvnot $e368)))
(define-fun $e370 () (_ BitVec 1) (bvand $e12 (bvnot $e369)))
(define-fun $e371 () (_ BitVec 1) (bvand (bvnot $e190) (bvnot $e370)))
(define-fun $e372 () (_ BitVec 1) (bvand (bvnot $e107) (bvnot $e371)))
(define-fun $e373 () (_ BitVec 1) (bvand $e12 $e157))
(define-fun $e374 () (_ BitVec 1) (bvand sflashclock1_4 $e258))
(define-fun $e375 () (_ BitVec 1) (bvand $e228 $e374))
(define-fun $e376 () (_ BitVec 1) (bvand (bvnot $e12) (bvnot $e375)))
(define-fun $e377 () (_ BitVec 1) (bvand (bvnot $e319) (bvnot $e376)))
(define-fun $e378 () (_ BitVec 1) (bvand $e12 $e49))
(define-fun $e379 () (_ BitVec 1) (bvand $e107 (bvnot $e378)))
(define-fun $e380 () (_ BitVec 1) (bvand (bvnot $e107) (bvnot $e377)))
(define-fun $e381 () (_ BitVec 1) (bvand (bvnot $e379) (bvnot $e380)))
(define-fun $e382 () (_ BitVec 1) (bvand $e9 (bvnot $e373)))
(define-fun $e383 () (_ BitVec 1) (bvand (bvnot $e9) (bvnot $e381)))
(define-fun $e384 () (_ BitVec 1) (bvand (bvnot $e382) (bvnot $e383)))
(define-fun $e385 () (_ BitVec 1) (bvand (bvnot $e6) $e384))
(define-fun $e386 () (_ BitVec 1) (bvand $e12 $e327))
(define-fun $e387 () (_ BitVec 1) (bvand rst_4 (bvnot $e373)))
(define-fun $e388 () (_ BitVec 1) (bvand (bvnot rst_4) (bvnot $e386)))
(define-fun $e389 () (_ BitVec 1) (bvand (bvnot $e387) (bvnot $e388)))
(define-fun $e390 () (_ BitVec 1) (bvand $e12 (bvnot $e181)))
(define-fun $e391 () (_ BitVec 1) (bvand (bvnot $e320) (bvnot $e390)))
(define-fun $e392 () (_ BitVec 1) (bvand (bvnot $e107) (bvnot $e391)))
(define-fun $e393 () (_ BitVec 1) (bvand (bvnot $e379) (bvnot $e392)))
(define-fun $e394 () (_ BitVec 1) (bvand $e9 (bvnot $e389)))
(define-fun $e395 () (_ BitVec 1) (bvand (bvnot $e9) (bvnot $e393)))
(define-fun $e396 () (_ BitVec 1) (bvand (bvnot $e394) (bvnot $e395)))
(define-fun $e397 () (_ BitVec 1) (bvand (bvnot $e6) $e396))
(define-fun $e398 () (_ BitVec 1) (bvand sflashclock1_3 (bvnot $e385)))
(define-fun $e399 () (_ BitVec 1) (bvand (bvnot sflashclock1_3) (bvnot $e397)))
(define-fun $e400 () (_ BitVec 1) (bvand (bvnot $e398) (bvnot $e399)))
(define-fun $e401 () (_ BitVec 1) (ite (= (bvnot $e1) $e10) #b1 #b0))
(define-fun $e402 () (_ BitVec 1) (bvand $e365 $e401))
(define-fun $e403 () (_ BitVec 1) (bvand $e9 (bvnot $e402)))
(define-fun $e404 () (_ BitVec 1) (bvand $e38 $e401))
(define-fun $e405 () (_ BitVec 1) (bvand $e107 (bvnot $e404)))
(define-fun $e406 () (_ BitVec 1) (bvand (bvnot $e366) (bvnot $e405)))
(define-fun $e407 () (_ BitVec 1) (bvand (bvnot $e9) (bvnot $e406)))
(define-fun $e408 () (_ BitVec 1) (bvand (bvnot $e403) (bvnot $e407)))
(define-fun $e409 () (_ BitVec 1) (bvand (bvnot $e6) $e408))
(define-fun $e410 () (_ BitVec 1) (bvand sflashclock1_3 (bvnot $e409)))
(define-fun $e411 () (_ BitVec 1) (bvand $e155 $e401))
(define-fun $e412 () (_ BitVec 1) (bvand rst_4 (bvnot $e411)))
(define-fun $e413 () (_ BitVec 1) (bvand $e206 $e401))
(define-fun $e414 () (_ BitVec 1) (bvand (bvnot rst_4) (bvnot $e413)))
(define-fun $e415 () (_ BitVec 1) (bvand (bvnot $e412) (bvnot $e414)))
(define-fun $e416 () (_ BitVec 1) (bvand $e9 (bvnot $e415)))
(define-fun $e417 () (_ BitVec 1) (bvand (bvnot $e372) (bvnot $e405)))
(define-fun $e418 () (_ BitVec 1) (bvand (bvnot $e9) (bvnot $e417)))
(define-fun $e419 () (_ BitVec 1) (bvand (bvnot $e416) (bvnot $e418)))
(define-fun $e420 () (_ BitVec 1) (bvand (bvnot $e6) $e419))
(define-fun $e421 () (_ BitVec 1) (bvand (bvnot sflashclock1_3) (bvnot $e420)))
(define-fun $e422 () (_ BitVec 1) (bvand (bvnot $e410) (bvnot $e421)))
(define-fun $e423 () (_ BitVec 1) (bvand $e3 (bvnot $e422)))
(define-fun $e424 () (_ BitVec 1) (bvand (bvnot $e3) (bvnot $e400)))
(define-fun $e425 () (_ BitVec 1) (bvand (bvnot $e423) (bvnot $e424)))
(define-fun $e426 () (_ BitVec 1) (bvand clk_3 (bvnot $e425)))
(define-fun $e427 () (_ BitVec 1) (bvand (bvnot clk_3) (bvnot $e362)))
(define-fun $e428 () (_ BitVec 1) (bvand (bvnot $e426) (bvnot $e427)))
(define-fun $e429 () (_ BitVec 1) (bvand $e107 (bvnot $e149)))
(define-fun $e430 () (_ BitVec 1) (bvand (bvnot $e107) (bvnot $e166)))
(define-fun $e431 () (_ BitVec 1) (bvand (bvnot $e429) (bvnot $e430)))
(define-fun $e432 () (_ BitVec 1) (bvand (bvnot $e9) (bvnot $e431)))
(define-fun $e433 () (_ BitVec 1) (bvand (bvnot $e170) (bvnot $e432)))
(define-fun $e434 () (_ BitVec 1) (bvand (bvnot $e6) $e433))
(define-fun $e435 () (_ BitVec 1) (bvand $e18 (bvnot $e110)))
(define-fun $e436 () (_ BitVec 1) (bvand (bvnot $e18) $e109))
(define-fun $e437 () (_ BitVec 1) (bvand (bvnot $e435) (bvnot $e436)))
(define-fun $e438 () (_ BitVec 1) (bvand (bvnot $e15) $e437))
(define-fun $e439 () (_ BitVec 1) (bvand sflashclock1_4 (bvnot $e154)))
(define-fun $e440 () (_ BitVec 1) (bvand (bvnot sflashclock1_4) (bvnot $e438)))
(define-fun $e441 () (_ BitVec 1) (bvand (bvnot $e439) (bvnot $e440)))
(define-fun $e442 () (_ BitVec 1) (bvand rst_4 (bvnot $e441)))
(define-fun $e443 () (_ BitVec 1) (bvand (bvnot rst_4) (bvnot $e206)))
(define-fun $e444 () (_ BitVec 1) (bvand (bvnot $e442) (bvnot $e443)))
(define-fun $e445 () (_ BitVec 1) (bvand rst_4 (bvnot $e38)))
(define-fun $e446 () (_ BitVec 1) (bvand (bvnot rst_4) (bvnot $e73)))
(define-fun $e447 () (_ BitVec 1) (bvand (bvnot $e445) (bvnot $e446)))
(define-fun $e448 () (_ BitVec 1) (bvand (bvnot $e46) (bvnot $e52)))
(define-fun $e449 () (_ BitVec 1) (bvand (bvnot $e15) $e448))
(define-fun $e450 () (_ BitVec 1) (bvand sflashclock1_4 $e449))
(define-fun $e451 () (_ BitVec 1) (bvand rst_4 (bvnot $e450)))
(define-fun $e452 () (_ BitVec 1) (bvand (bvnot $e52) (bvnot $e176)))
(define-fun $e453 () (_ BitVec 1) (bvand (bvnot $e15) $e452))
(define-fun $e454 () (_ BitVec 1) (bvand sflashclock1_4 $e453))
(define-fun $e455 () (_ BitVec 1) (bvand (bvnot rst_4) (bvnot $e454)))
(define-fun $e456 () (_ BitVec 1) (bvand (bvnot $e451) (bvnot $e455)))
(define-fun $e457 () (_ BitVec 1) (bvand $e39 $e456))
(define-fun $e458 () (_ BitVec 1) (bvand sflashclock1_3 (bvnot $e434)))
(define-fun $e459 () (_ BitVec 1) (bvand (bvnot sflashclock1_4) $e314))
(define-fun $e460 () (_ BitVec 1) (bvand $e228 $e459))
(define-fun $e461 () (_ BitVec 1) (bvand (bvnot $e12) (bvnot $e460)))
(define-fun $e462 () (_ BitVec 1) (bvand (bvnot $e319) (bvnot $e461)))
(define-fun $e463 () (_ BitVec 1) (bvand (bvnot rst_4) (bvnot $e462)))
(define-fun $e464 () (_ BitVec 1) (bvand (bvnot $e322) (bvnot $e463)))
(define-fun $e465 () (_ BitVec 1) (bvand (bvnot $e28) (bvnot $e126)))
(define-fun $e466 () (_ BitVec 1) (bvand (bvnot rst_5) (bvnot $e465)))
(define-fun $e467 () (_ BitVec 1) (bvand (bvnot $e122) (bvnot $e466)))
(define-fun $e468 () (_ BitVec 1) (bvand $e25 $e126))
(define-fun $e469 () (_ BitVec 1) (bvand (bvnot $e25) $e42))
(define-fun $e470 () (_ BitVec 1) (bvand (bvnot $e468) (bvnot $e469)))
(define-fun $e471 () (_ BitVec 1) (bvand $e18 (bvnot $e467)))
(define-fun $e472 () (_ BitVec 1) (bvand (bvnot $e18) (bvnot $e470)))
(define-fun $e473 () (_ BitVec 1) (bvand (bvnot $e471) (bvnot $e472)))
(define-fun $e474 () (_ BitVec 1) (bvand (bvnot $e15) $e473))
(define-fun $e475 () (_ BitVec 1) (bvand (bvnot sflashclock1_4) (bvnot $e474)))
(define-fun $e476 () (_ BitVec 1) (bvand (bvnot $e325) (bvnot $e475)))
(define-fun $e477 () (_ BitVec 1) (bvand $e12 (bvnot $e476)))
(define-fun $e478 () (_ BitVec 1) (bvand (bvnot $e348) (bvnot $e477)))
(define-fun $e479 () (_ BitVec 1) (bvand $e107 (bvnot $e344)))
(define-fun $e480 () (_ BitVec 1) (bvand (bvnot $e107) (bvnot $e478)))
(define-fun $e481 () (_ BitVec 1) (bvand (bvnot $e479) (bvnot $e480)))
(define-fun $e482 () (_ BitVec 1) (bvand $e9 (bvnot $e464)))
(define-fun $e483 () (_ BitVec 1) (bvand (bvnot $e9) (bvnot $e481)))
(define-fun $e484 () (_ BitVec 1) (bvand (bvnot $e482) (bvnot $e483)))
(define-fun $e485 () (_ BitVec 1) (bvand (bvnot $e6) $e484))
(define-fun $e486 () (_ BitVec 1) (bvand (bvnot sflashclock1_3) (bvnot $e485)))
(define-fun $e487 () (_ BitVec 1) (bvand (bvnot $e357) (bvnot $e486)))
(define-fun $e488 () (_ BitVec 1) (bvand $e401 (bvnot $e447)))
(define-fun $e489 () (_ BitVec 1) (bvand (bvnot $e401) (bvnot $e457)))
(define-fun $e490 () (_ BitVec 1) (bvand (bvnot $e488) (bvnot $e489)))
(define-fun $e491 () (_ BitVec 1) (bvand $e9 (bvnot $e490)))
(define-fun $e492 () (_ BitVec 1) (bvand (bvnot $e163) (bvnot $e401)))
(define-fun $e493 () (_ BitVec 1) (bvand $e401 (bvnot $e444)))
(define-fun $e494 () (_ BitVec 1) (bvand (bvnot $e492) (bvnot $e493)))
(define-fun $e495 () (_ BitVec 1) (bvand (bvnot $e9) (bvnot $e494)))
(define-fun $e496 () (_ BitVec 1) (bvand (bvnot $e491) (bvnot $e495)))
(define-fun $e497 () (_ BitVec 1) (bvand (bvnot $e6) $e496))
(define-fun $e498 () (_ BitVec 1) (bvand (bvnot sflashclock1_3) (bvnot $e497)))
(define-fun $e499 () (_ BitVec 1) (bvand (bvnot $e458) (bvnot $e498)))
(define-fun $e500 () (_ BitVec 1) (bvand $e3 (bvnot $e499)))
(define-fun $e501 () (_ BitVec 1) (bvand (bvnot $e3) (bvnot $e487)))
(define-fun $e502 () (_ BitVec 1) (bvand (bvnot $e500) (bvnot $e501)))
(define-fun $e503 () (_ BitVec 1) (bvand (bvnot $e101) $e107))
(define-fun $e504 () (_ BitVec 1) (bvand (bvnot sflashclock1_4) $e301))
(define-fun $e505 () (_ BitVec 1) (bvand $e12 (bvnot $e504)))
(define-fun $e506 () (_ BitVec 1) (bvand (bvnot $e190) (bvnot $e505)))
(define-fun $e507 () (_ BitVec 1) (bvand (bvnot $e22) (bvnot $e194)))
(define-fun $e508 () (_ BitVec 1) (bvand $e25 (bvnot $e507)))
(define-fun $e509 () (_ BitVec 1) (bvand (bvnot $e21) (bvnot $e25)))
(define-fun $e510 () (_ BitVec 1) (bvand (bvnot $e508) (bvnot $e509)))
(define-fun $e511 () (_ BitVec 1) (bvand (bvnot $e18) (bvnot $e510)))
(define-fun $e512 () (_ BitVec 1) (bvand (bvnot $e80) (bvnot $e511)))
(define-fun $e513 () (_ BitVec 1) (bvand (bvnot $e15) $e512))
(define-fun $e514 () (_ BitVec 1) (bvand sflashclock1_4 (bvnot $e37)))
(define-fun $e515 () (_ BitVec 1) (bvand (bvnot sflashclock1_4) (bvnot $e513)))
(define-fun $e516 () (_ BitVec 1) (bvand (bvnot $e514) (bvnot $e515)))
(define-fun $e517 () (_ BitVec 1) (bvand $e107 (bvnot $e506)))
(define-fun $e518 () (_ BitVec 1) (bvand $e107 (bvnot $e377)))
(define-fun $e519 () (_ BitVec 1) (bvand (bvnot $e107) (bvnot $e378)))
(define-fun $e520 () (_ BitVec 1) (bvand (bvnot $e518) (bvnot $e519)))
(define-fun $e521 () (_ BitVec 1) (bvand (bvnot $e9) (bvnot $e520)))
(define-fun $e522 () (_ BitVec 1) (bvand (bvnot $e382) (bvnot $e521)))
(define-fun $e523 () (_ BitVec 1) (bvand (bvnot $e6) $e522))
(define-fun $e524 () (_ BitVec 1) (bvand $e12 (bvnot $e84)))
(define-fun $e525 () (_ BitVec 1) (bvand (bvnot $e320) (bvnot $e524)))
(define-fun $e526 () (_ BitVec 1) (bvand (bvnot $e22) (bvnot $e77)))
(define-fun $e527 () (_ BitVec 1) (bvand $e25 (bvnot $e526)))
(define-fun $e528 () (_ BitVec 1) (bvand (bvnot $e509) (bvnot $e527)))
(define-fun $e529 () (_ BitVec 1) (bvand (bvnot $e18) (bvnot $e528)))
(define-fun $e530 () (_ BitVec 1) (bvand (bvnot $e80) (bvnot $e529)))
(define-fun $e531 () (_ BitVec 1) (bvand (bvnot $e15) $e530))
(define-fun $e532 () (_ BitVec 1) (bvand sflashclock1_4 (bvnot $e48)))
(define-fun $e533 () (_ BitVec 1) (bvand (bvnot sflashclock1_4) (bvnot $e531)))
(define-fun $e534 () (_ BitVec 1) (bvand (bvnot $e532) (bvnot $e533)))
(define-fun $e535 () (_ BitVec 1) (bvand $e12 $e534))
(define-fun $e536 () (_ BitVec 1) (bvand $e107 (bvnot $e525)))
(define-fun $e537 () (_ BitVec 1) (bvand (bvnot $e107) (bvnot $e535)))
(define-fun $e538 () (_ BitVec 1) (bvand (bvnot $e536) (bvnot $e537)))
(define-fun $e539 () (_ BitVec 1) (bvand (bvnot $e9) (bvnot $e538)))
(define-fun $e540 () (_ BitVec 1) (bvand (bvnot $e394) (bvnot $e539)))
(define-fun $e541 () (_ BitVec 1) (bvand (bvnot $e6) $e540))
(define-fun $e542 () (_ BitVec 1) (bvand sflashclock1_3 (bvnot $e523)))
(define-fun $e543 () (_ BitVec 1) (bvand (bvnot sflashclock1_3) (bvnot $e541)))
(define-fun $e544 () (_ BitVec 1) (bvand (bvnot $e542) (bvnot $e543)))
(define-fun $e545 () (_ BitVec 1) (bvand (bvnot $e107) (bvnot $e404)))
(define-fun $e546 () (_ BitVec 1) (bvand (bvnot $e503) (bvnot $e545)))
(define-fun $e547 () (_ BitVec 1) (bvand (bvnot $e9) (bvnot $e546)))
(define-fun $e548 () (_ BitVec 1) (bvand (bvnot $e403) (bvnot $e547)))
(define-fun $e549 () (_ BitVec 1) (bvand (bvnot $e6) $e548))
(define-fun $e550 () (_ BitVec 1) (bvand sflashclock1_3 (bvnot $e549)))
(define-fun $e551 () (_ BitVec 1) (bvand $e401 $e516))
(define-fun $e552 () (_ BitVec 1) (bvand (bvnot $e107) (bvnot $e551)))
(define-fun $e553 () (_ BitVec 1) (bvand (bvnot $e517) (bvnot $e552)))
(define-fun $e554 () (_ BitVec 1) (bvand (bvnot $e9) (bvnot $e553)))
(define-fun $e555 () (_ BitVec 1) (bvand (bvnot $e416) (bvnot $e554)))
(define-fun $e556 () (_ BitVec 1) (bvand (bvnot $e6) $e555))
(define-fun $e557 () (_ BitVec 1) (bvand (bvnot sflashclock1_3) (bvnot $e556)))
(define-fun $e558 () (_ BitVec 1) (bvand (bvnot $e550) (bvnot $e557)))
(define-fun $e559 () (_ BitVec 1) (bvand $e3 (bvnot $e558)))
(define-fun $e560 () (_ BitVec 1) (bvand (bvnot $e3) (bvnot $e544)))
(define-fun $e561 () (_ BitVec 1) (bvand (bvnot $e559) (bvnot $e560)))
(define-fun $e562 () (_ BitVec 1) (bvand clk_3 (bvnot $e561)))
(define-fun $e563 () (_ BitVec 1) (bvand (bvnot clk_3) (bvnot $e502)))
(define-fun $e564 () (_ BitVec 1) (bvand (bvnot $e562) (bvnot $e563)))
(define-fun $e565 () (_ BitVec 1) (bvand rst_3 (bvnot $e564)))
(define-fun $e566 () (_ BitVec 1) (bvand (bvnot rst_3) (bvnot $e428)))
(assert (not (= (bvnot $e565) #b0)))
(assert (not (= (bvnot $e566) #b0)))
(check-sat)
(exit)
